
Gurobi 9.5.1 (linux64) logging started Tue 16 Aug 2022 07:10:57 PM MST

Set parameter LogFile to value "/home/local/ASUAD/kmajd1/NNRepLayer_v2/demos/walking_example/dynamic_constraint/repair_net/logs/opt_log_multi_7.log"
Gurobi Optimizer version 9.5.1 build v9.5.1rc2 (linux64)
Thread count: 48 physical cores, 96 logical processors, using up to 48 threads
Optimize a model with 15477 rows, 9832 columns and 145429 nonzeros
Model fingerprint: 0x9bbc7ea8
Model has 135 quadratic objective terms
Variable types: 5512 continuous, 4320 integer (4320 binary)
Coefficient statistics:
  Matrix range     [3e-03, 6e+01]
  Objective range  [2e-02, 3e+00]
  QObjective range [1e-01, 1e-01]
  Bounds range     [3e-03, 3e+02]
  RHS range        [8e-04, 6e+01]

Concurrent MIP optimizer: 3 concurrent instances (16 threads per instance)

Presolve removed 398 rows and 64 columns
Presolve time: 0.25s
Presolved: 15079 rows, 9768 columns, 144903 nonzeros
Presolved model has 135 quadratic objective terms
Variable types: 5448 continuous, 4320 integer (4320 binary)
Root relaxation presolve removed 4320 rows and 4320 columns
Root relaxation presolved: 10759 rows, 5448 columns, 131943 nonzeros
Root relaxation presolved model has 135 quadratic objective terms


Root relaxation: objective 1.982723e+01, 6067 iterations, 0.47 seconds (0.89 work units)

    Nodes    |    Current Node    |     Objective Bounds      |     Work
 Expl Unexpl |  Obj  Depth IntInf | Incumbent    BestBd   Gap | It/Node Time

     0     0      -    -    -              -   19.82723      -     -    0s
     0     0      -    -    -              -   19.82723      -     -    2s
     0     2      -    -    -              -   19.82723      -     -    9s
    95   118      -    -    -              -   19.82723      -     -   10s
  2674  2802      -    -    -              -   19.82723      -     -   15s
  5519  5717      -    -    -              -   19.82723      -     -   20s
  7273  7464      -    -    -              -   19.82723      -     -   25s
  9291  9505      -    -    -              -   19.82723      -     -   30s
 10095 10211      -    -    -              -   19.82723      -     -   35s
 10211 10212      -    -    -       33.04882   19.82723  40.0%     -   42s
 10213  9217      -    -    -       33.00517   19.82723  39.9%     -   45s
 10215  8758      -    -    -       31.29864   19.82723  36.7%     -   52s
 10216  8761      -    -    -       30.52720   19.82723  35.1%     -   59s
 10374  8884      -    -    -       30.52720   19.82723  35.1%     -   60s

Instance 0 was solved

Explored 10448 nodes (922390 simplex iterations) in 63.05 seconds (107.42 work units)
Thread count was 16 (of 96 available processors)

Solution count 10: 26.9006 30.3807 30.4013 ... 30.5272 

Optimal solution found (tolerance 3.50e-01)
Best objective 2.690063312570e+01, best bound 1.982723100197e+01, gap 26.2946%
